     Program PWSCF v.6.6 starts on 17Dec2024 at 13:30:44

     R & G space division:  proc/nbgrp/npool/nimage =      20
     Fft bands division:     nmany     =       1
     Reading input from MoS2.in

     Current dimensions of program PWSCF are:
     Max number of different atomic species (ntypx) = 10
     Max number of k-points (npk) =  40000
     Max angular momentum in pseudopotentials (lmaxx) =  3

     Subspace diagonalization in iterative solution of the eigenvalue problem:
     a serial algorithm will be used

     Message from routine setup:
     using ibrav=0 with symmetry is DISCOURAGED, use correct ibrav instead

     bravais-lattice index     =            0
     lattice parameter (alat)  =       6.0325  a.u.
     unit-cell volume          =     796.7434 (a.u.)^3
     number of atoms/cell      =            6
     number of atomic types    =            2
     number of electrons       =        52.00
     number of Kohn-Sham states=           31
     kinetic-energy cutoff     =      40.0000  Ry
     charge density cutoff     =     400.0000  Ry
     convergence threshold     =      1.0E-08
     mixing beta               =       0.7000
     number of iterations used =            8  plain     mixing
     Exchange-correlation=  SLA  PW   PBX  PBC
                           (   1   4   3   4   0   0   0)
     nstep                     =          100

     celldm(1)=   6.032455  celldm(2)=   0.000000  celldm(3)=   0.000000
     celldm(4)=   0.000000  celldm(5)=   0.000000  celldm(6)=   0.000000

     crystal axes: (cart. coord. in units of alat)
               a(1) = (   0.500000  -0.866025   0.000000 )
               a(2) = (   0.500000   0.866025   0.000000 )
               a(3) = (   0.000000   0.000000   4.190882 )

     reciprocal axes: (cart. coord. in units 2 pi/alat)
               b(1) = (  1.000000 -0.577350  0.000000 )
               b(2) = (  1.000000  0.577350  0.000000 )
               b(3) = (  0.000000  0.000000  0.238613 )

     PseudoPot. # 1 for Mo read from file:
     /home/rdm323/Workshop/ECMS_Course/MoS2/pseudoPotentials/Mo_ONCV_PBE-1.0.oncvpsp.upf
     MD5 check sum: 1b5d28e075c9ccadda658a603575cd1f
     Pseudo is Norm-conserving, Zval = 14.0
     Generated using ONCVPSP code by D. R. Hamann
     Using radial grid of 1526 points,  6 beta functions with:
                l(1) =   0
                l(2) =   0
                l(3) =   1
                l(4) =   1
                l(5) =   2
                l(6) =   2

     PseudoPot. # 2 for S  read from file:
     /home/rdm323/Workshop/ECMS_Course/MoS2/pseudoPotentials/s_pbe_v1.4.uspp.F.UPF
     MD5 check sum: 88d86576ff6df21479756cfb9bdac1df
     Pseudo is Ultrasoft + core correction, Zval =  6.0
     Generated by new atomic code, or converted to UPF format
     Using radial grid of  907 points,  6 beta functions with:
                l(1) =   0
                l(2) =   0
                l(3) =   1
                l(4) =   1
                l(5) =   2
                l(6) =   2
     Q(r) pseudized with  8 coefficients,  rinner =    1.300   1.300   1.300
                                                       1.300   1.300

     atomic species   valence    mass     pseudopotential
        Mo            14.00    95.95000     Mo( 1.00)
        S              6.00    32.06000     S ( 1.00)

     12 Sym. Ops., with inversion, found (10 have fractional translation)

   Cartesian axes

     site n.     atom                  positions (alat units)
         1           Mo  tau(   1) = (   0.3333333   0.2886751   1.0477206  )
         2           Mo  tau(   2) = (   0.8333333   0.5773503   3.1431619  )
         3           S   tau(   3) = (   0.3333333   0.2886751   2.6541958  )
         4           S   tau(   4) = (   0.8333333   0.5773503   1.5366867  )
         5           S   tau(   5) = (   0.3333333   0.2886751   3.6319675  )
         6           S   tau(   6) = (   0.8333333   0.5773503   0.5589150  )

     number of k points=     7  Gaussian smearing, width (Ry)=  0.0100
                       cart. coord. in units 2pi/alat
        k(    1) = (   0.0000000   0.0000000   0.0000000), wk =   0.0555556
        k(    2) = (   0.1666667   0.0962250   0.0000000), wk =   0.3333333
        k(    3) = (   0.3333333   0.1924501   0.0000000), wk =   0.3333333
        k(    4) = (  -0.5000000  -0.2886751   0.0000000), wk =   0.1666667
        k(    5) = (   0.3333333   0.0000000   0.0000000), wk =   0.3333333
        k(    6) = (   0.5000000   0.0962250   0.0000000), wk =   0.6666667
        k(    7) = (   0.6666667   0.0000000   0.0000000), wk =   0.1111111

     Initial potential from superposition of free atoms

     starting charge   51.99788, renormalised to   52.00000
     Starting wfcs are   36 randomized atomic wfcs

     Self-consistent Calculation

     iteration #  1     ecut=    40.00 Ry     beta= 0.70
     Davidson diagonalization with overlap
     ethr =  1.00E-02,  avg # of iterations =  2.1

     Threshold (ethr) on eigenvalues was too large:
     Diagonalizing with lowered threshold

     Davidson diagonalization with overlap
     ethr =  3.10E-04,  avg # of iterations =  2.1

     total energy              =    -371.00228836 Ry
     estimated scf accuracy    <       0.20446925 Ry

[...]

     iteration #  5     ecut=    40.00 Ry     beta= 0.70
     Davidson diagonalization with overlap
     c_bands:  1 eigenvalues not converged
     ethr =  2.42E-06,  avg # of iterations =  8.9

[...]

     End of self-consistent calculation

          k = 0.0000 0.0000 0.0000 (  3339 PWs)   bands (ev):

   -52.0820 -52.0820 -26.2208 -26.2208 -26.0269 -26.0269 -26.0269 -26.0269
    -5.3105  -5.2214  -4.0391  -3.8853   2.9606   3.4492   6.1677   6.1677
     6.1713   6.1713   6.4501   7.2685   7.2685   7.2812   7.2812   7.7583
     8.4974   9.2339  11.5307  11.5308  11.5398  11.5398  11.7560

[...]

          k =-0.5000-0.2887 0.0000 (  3384 PWs)   bands (ev):

[...]

     the Fermi energy is     9.8198 ev

!    total energy              =    -371.07382898 Ry
     estimated scf accuracy    <          5.3E-09 Ry
     smearing contrib. (-TS)   =      -0.00000000 Ry
     internal energy E=F+TS    =    -371.07382898 Ry

     The total energy is F=E-TS. E is the sum of the following terms:
     one-electron contribution =    -231.85696294 Ry
     hartree contribution      =     134.50114295 Ry
     xc contribution           =     -65.11370619 Ry
     ewald contribution        =    -208.60430280 Ry

     convergence has been achieved in  12 iterations

     Forces acting on atoms (cartesian axes, Ry/au):

     atom    1 type  1   force =    -0.00000000    0.00000000    0.00031983
     atom    2 type  1   force =    -0.00000000   -0.00000000   -0.00031983
     atom    3 type  2   force =     0.00000000    0.00000000    0.00111062
     atom    4 type  2   force =     0.00000000    0.00000000   -0.00111062
     atom    5 type  2   force =    -0.00000000    0.00000000   -0.00081004
     atom    6 type  2   force =     0.00000000   -0.00000000    0.00081004

     Total force =     0.001996     Total SCF correction =     0.000504
     SCF correction compared to forces is large: reduce conv_thr to get better values

     Computing stress (Cartesian axis) and pressure

          total   stress  (Ry/bohr**3)                   (kbar)     P=       -2.23
  -0.00003703   0.00000000  -0.00000000           -5.45        0.00       -0.00
   0.00000000  -0.00003703  -0.00000000            0.00       -5.45       -0.00
   0.00000000  -0.00000000   0.00002854            0.00       -0.00        4.20

     BFGS Geometry Optimization

     number of scf cycles    =   1
     number of bfgs steps    =   0

     enthalpy new            =    -371.0738289790 Ry

     new trust radius        =       0.0052258673 bohr
     new conv_thr            =       0.0000000100 Ry

     new unit-cell volume =    795.83641 a.u.^3 (   117.93079 Ang^3 )
     density =      4.50777 g/cm^3

CELL_PARAMETERS (angstrom)
   1.594641436  -2.761999984   0.000000000
   1.594641436   2.761999984   0.000000000
  -0.000000000  -0.000000000  13.387839392

ATOMIC_POSITIONS (angstrom)
Mo            1.0630942843        0.9206666614        3.3471292138
Mo            2.6577357108        1.8413333228       10.0407101780
S             1.0630942843        0.9206666614        8.4794580319
S             2.6577357108        1.8413333228        4.9083813600
S             1.0630942843        0.9206666614       11.6019478052
S             2.6577357108        1.8413333228        1.7858915867

     Writing output data file ./MoS2.save/
     NEW-OLD atomic charge density approx. for the potential
     extrapolated charge   51.94074, renormalised to   52.00000

[...]

     Total force =     0.001383     Total SCF correction =     0.000027

[...]

     enthalpy old            =    -371.0738289790 Ry
     enthalpy new            =    -371.0738919454 Ry

     CASE: enthalpy_new < enthalpy_old

[...]

     Threshold (ethr) on eigenvalues was too large:
     Diagonalizing with lowered threshold

     Davidson diagonalization with overlap
     ethr =  4.65E-08,  avg # of iterations =  4.1

[...]

     number of scf cycles    =  12
     number of bfgs steps    =  11

     enthalpy old            =    -371.0750363301 Ry
     enthalpy new            =    -371.0751101380 Ry

     CASE: enthalpy_new < enthalpy_old

     new trust radius        =       0.0027669453 bohr
     new conv_thr            =            1.0E-10 Ry

     new unit-cell volume =    864.79086 a.u.^3 (   128.14878 Ang^3 )
     density =      4.14834 g/cm^3

[...]

ATOMIC_POSITIONS (angstrom)
Mo            1.0612837843        0.9190987224        3.6496700667
Mo            2.6532094608        1.8381974447       10.9478233554
S             1.0612837843        0.9190987224        9.3842673102
S             2.6532094608        1.8381974447        5.2132261119
S             1.0612837843        0.9190987224       12.5114136815
S             2.6532094608        1.8381974447        2.0860797406

     Writing output data file ./MoS2.save/
     NEW-OLD atomic charge density approx. for the potential
     extrapolated charge   52.06178, renormalised to   52.00000

[...]

     bfgs converged in  13 scf cycles and  12 bfgs steps
     (criteria: energy <  1.0E-04 Ry, force <  1.0E-03Ry/Bohr, cell <  5.0E-01kbar)

     End of BFGS Geometry Optimization

     Final enthalpy =    -371.0751155442 Ry

     File ./MoS2.bfgs deleted, as requested
Begin final coordinates
     new unit-cell volume =    864.79086 a.u.^3 (   128.14878 Ang^3 )
     density =      4.14834 g/cm^3

CELL_PARAMETERS (angstrom)
   1.591925686  -2.757296167   0.000000000
   1.591925686   2.757296167  -0.000000000
  -0.000000000  -0.000000000  14.597493422

ATOMIC_POSITIONS (angstrom)
Mo            1.0612837843        0.9190987224        3.6496700667
Mo            2.6532094608        1.8381974447       10.9478233554
S             1.0612837843        0.9190987224        9.3842673102
S             2.6532094608        1.8381974447        5.2132261119
S             1.0612837843        0.9190987224       12.5114136815
S             2.6532094608        1.8381974447        2.0860797406
End final coordinates

     Writing output data file ./MoS2.save/

     Final scf calculation at the relaxed structure.
     The G-vectors are recalculated for the final unit cell
     Results may differ from those at the preceding step.

     bravais-lattice index     =            0
     lattice parameter (alat)  =       6.0325  a.u.
     unit-cell volume          =     864.7909 (a.u.)^3
     number of atoms/cell      =            6
     number of atomic types    =            2
     number of electrons       =        52.00
     number of Kohn-Sham states=           31
     kinetic-energy cutoff     =      40.0000  Ry
     charge density cutoff     =     400.0000  Ry
     convergence threshold     =      1.0E-10
     mixing beta               =       0.7000
     number of iterations used =            8  plain     mixing
     Exchange-correlation=  SLA  PW   PBX  PBC
                           (   1   4   3   4   0   0   0)

     celldm(1)=   6.032455  celldm(2)=   0.000000  celldm(3)=   0.000000
     celldm(4)=   0.000000  celldm(5)=   0.000000  celldm(6)=   0.000000

     crystal axes: (cart. coord. in units of alat)
               a(1) = (   0.498686  -0.863750   0.000000 )
               a(2) = (   0.498686   0.863750  -0.000000 )
               a(3) = (  -0.000000  -0.000000   4.572809 )

     reciprocal axes: (cart. coord. in units 2 pi/alat)
               b(1) = (  1.002634 -0.578871  0.000000 )
               b(2) = (  1.002634  0.578871  0.000000 )
               b(3) = ( -0.000000  0.000000  0.218684 )

     PseudoPot. # 1 for Mo read from file:
     /home/rdm323/Workshop/ECMS_Course/MoS2/pseudoPotentials/Mo_ONCV_PBE-1.0.oncvpsp.upf
     MD5 check sum: 1b5d28e075c9ccadda658a603575cd1f
     Pseudo is Norm-conserving, Zval = 14.0
     Generated using ONCVPSP code by D. R. Hamann
     Using radial grid of 1526 points,  6 beta functions with:
                l(1) =   0
                l(2) =   0
                l(3) =   1
                l(4) =   1
                l(5) =   2
                l(6) =   2

     PseudoPot. # 2 for S  read from file:
     /home/rdm323/Workshop/ECMS_Course/MoS2/pseudoPotentials/s_pbe_v1.4.uspp.F.UPF
     MD5 check sum: 88d86576ff6df21479756cfb9bdac1df
     Pseudo is Ultrasoft + core correction, Zval =  6.0
     Generated by new atomic code, or converted to UPF format
     Using radial grid of  907 points,  6 beta functions with:
                l(1) =   0
                l(2) =   0
                l(3) =   1
                l(4) =   1
                l(5) =   2
                l(6) =   2
     Q(r) pseudized with  8 coefficients,  rinner =    1.300   1.300   1.300
                                                       1.300   1.300

     atomic species   valence    mass     pseudopotential
        Mo            14.00    95.95000     Mo( 1.00)
        S              6.00    32.06000     S ( 1.00)

     12 Sym. Ops., with inversion, found (10 have fractional translation)

   Cartesian axes

     site n.     atom                  positions (alat units)
         1           Mo  tau(   1) = (   0.3324576   0.2879167   1.1432951  )
         2           Mo  tau(   2) = (   0.8311440   0.5758335   3.4295136  )
         3           S   tau(   3) = (   0.3324576   0.2879167   2.9397143  )
         4           S   tau(   4) = (   0.8311440   0.5758335   1.6330945  )
         5           S   tau(   5) = (   0.3324576   0.2879167   3.9193237  )
         6           S   tau(   6) = (   0.8311440   0.5758335   0.6534850  )

     number of k points=     7  Gaussian smearing, width (Ry)=  0.0100
                       cart. coord. in units 2pi/alat
        k(    1) = (   0.0000000   0.0000000   0.0000000), wk =   0.0555556
        k(    2) = (   0.1671057   0.0964785   0.0000000), wk =   0.3333333
        k(    3) = (   0.3342114   0.1929570   0.0000000), wk =   0.3333333
        k(    4) = (  -0.5013170  -0.2894355  -0.0000000), wk =   0.1666667
        k(    5) = (   0.3342114  -0.0000000   0.0000000), wk =   0.3333333
        k(    6) = (   0.5013170   0.0964785   0.0000000), wk =   0.6666667
        k(    7) = (   0.6684227  -0.0000000   0.0000000), wk =   0.1111111

     Initial potential from superposition of free atoms

     starting charge   51.99788, renormalised to   52.00000
     Starting wfcs are   36 randomized atomic wfcs

     Self-consistent Calculation

     iteration #  1     ecut=    40.00 Ry     beta= 0.70
     Davidson diagonalization with overlap
     c_bands:  3 eigenvalues not converged
     c_bands:  1 eigenvalues not converged
     c_bands:  1 eigenvalues not converged
     c_bands:  2 eigenvalues not converged
     ethr =  1.00E-06,  avg # of iterations = 18.0

[...]

     total energy              =    -371.07524256 Ry
     estimated scf accuracy    <          3.8E-10 Ry

     iteration # 16     ecut=    40.00 Ry     beta= 0.70
     Davidson diagonalization with overlap
     ethr =  7.26E-13,  avg # of iterations =  4.4

     End of self-consistent calculation

[...]

          k =-0.5013-0.2894-0.0000 (  3696 PWs)   bands (ev):

[...]

          k = 0.6684-0.0000 0.0000 (  3732 PWs)   bands (ev):

   -53.1933 -53.1933 -27.4539 -27.4539 -27.4114 -27.4114 -27.2960 -27.2960
    -4.3203  -4.3203  -4.2444  -4.2444   2.2355   2.2520   3.0599   3.0599
     3.5666   3.5961   4.0846   4.0846   4.7647   4.7647   5.4864   5.4864
     7.6044   7.6289   9.3019   9.3019  10.5789  10.8007  11.1530

     the Fermi energy is     8.5808 ev

!    total energy              =    -371.07524256 Ry
     estimated scf accuracy    <          2.0E-11 Ry
     smearing contrib. (-TS)   =      -0.00000000 Ry
     internal energy E=F+TS    =    -371.07524256 Ry

     The total energy is F=E-TS. E is the sum of the following terms:
     one-electron contribution =    -301.88501724 Ry
     hartree contribution      =     167.30028772 Ry
     xc contribution           =     -65.11966841 Ry
     ewald contribution        =    -171.37084462 Ry

     convergence has been achieved in  16 iterations

     Forces acting on atoms (cartesian axes, Ry/au):

     atom    1 type  1   force =    -0.00000000   -0.00000000   -0.00002125
     atom    2 type  1   force =    -0.00000000    0.00000000    0.00002125
     atom    3 type  2   force =    -0.00000000    0.00000000    0.00020007
     atom    4 type  2   force =     0.00000000   -0.00000000   -0.00020007
     atom    5 type  2   force =    -0.00000000   -0.00000000   -0.00021979
     atom    6 type  2   force =     0.00000000    0.00000000    0.00021979

     Total force =     0.000421     Total SCF correction =     0.000035

     Computing stress (Cartesian axis) and pressure

          total   stress  (Ry/bohr**3)                   (kbar)     P=        0.09
   0.00000105  -0.00000000   0.00000000            0.15       -0.00        0.00
  -0.00000000   0.00000105   0.00000000           -0.00        0.15        0.00
   0.00000000  -0.00000000  -0.00000019            0.00       -0.00       -0.03

     Writing output data file ./MoS2.save/

     General routines

     Parallel routines

   This run was terminated on:  13:31:40  17Dec2024

   JOB DONE.